p cnf 38 121
3 1 0
3 2 0
-1 -2 -3 0
-3 4 -5 0
3 -4 -5 0
-3 -4 5 0
3 4 5 0
7 5 0
7 6 0
-5 -6 -7 0
-8 9 -10 0
8 -9 -10 0
-8 -9 10 0
8 9 10 0
-11 -12 -13 0
11 12 -13 0
-11 12 13 0
11 -12 13 0
-4 13 -14 0
4 -13 -14 0
-4 -13 14 0
4 13 14 0
15 -10 0
15 14 0
10 -14 -15 0
-17 16 0
-17 9 0
-16 -9 17 0
-18 10 0
-18 -17 0
-10 17 18 0
19 15 0
19 18 0
-15 -18 -19 0
4 -13 -21 0
-4 13 -21 0
4 13 21 0
-4 -13 21 0
22 -12 0
22 21 0
12 -21 -22 0
23 20 0
23 -22 0
-20 22 -23 0
19 23 -24 0
-19 -23 -24 0
19 -23 24 0
-19 23 24 0
-9 -25 0
9 -25 0
-14 17 -26 0
14 -17 -26 0
-14 -17 26 0
14 17 26 0
-27 -25 0
-27 26 0
25 -26 27 0
28 24 0
28 -27 0
-24 27 -28 0
29 -7 0
29 -28 0
7 28 -29 0
-1 8 -30 0
1 -8 -30 0
-1 -8 30 0
1 8 30 0
-31 -12 0
-31 -16 0
12 16 31 0
-32 30 0
-32 -31 0
-30 31 32 0
29 -32 -33 0
-29 32 -33 0
29 32 33 0
-29 -32 33 0
12 -34 0
-12 -34 0
8 1 -35 0
-8 -1 -35 0
8 -1 35 0
-8 1 35 0
36 -26 0
36 35 0
26 -35 -36 0
37 34 0
37 36 0
-34 -36 -37 0
38 33 0
38 37 0
-33 -37 -38 0
8 -24 -19 0
-19 5 -8 20 0
-31 30 0
-26 -33 -28 32 -22 0
-3 -5 -19 1 28 0
-17 -11 13 6 0
23 -14 0
5 14 0
-8 -9 5 0
26 3 -30 8 0
-15 18 -29 31 -37 28 0
-19 -5 -32 16 33 0
9 -22 -29 38 0
31 -4 11 35 -14 0
-11 14 4 -28 0
-14 4 -37 28 0
11 22 13 0
14 -23 -34 4 0
11 14 29 0
15 -31 0
-17 -18 0
21 33 7 37 -14 0
14 10 -38 -13 0
14 19 -11 -6 31 0
-3 35 28 -34 -12 0
-35 21 27 -7 0
35 -36 32 0
-4 -20 22 35 0
38 0
